(benchmark gametime
:status unknown
:logic QF_AUFBV
:extrafuns ((gtINDEX47  BitVec[32]))
:extrafuns ((gtFIELD__bitsForTID0__gtAGG____anonstruct_D_Work_4  Array[32:32]))
:extrafuns ((gtINDEX48  BitVec[32]))
:extrafuns ((gtAGG__rtDWork  BitVec[32]))
:extrafuns ((gtINDEX45  BitVec[32]))
:extrafuns ((gtINDEX46  BitVec[32]))
:extrafuns ((gtINDEX44  BitVec[32]))
:extrafuns ((gtINDEX43  BitVec[32]))
:extrafuns ((gtINDEX42  BitVec[32]))
:extrafuns ((gtINDEX41  BitVec[32]))
:extrafuns ((gtINDEX40  BitVec[32]))
:extrafuns ((gtINDEX39  BitVec[32]))
:extrafuns ((gtINDEX38  BitVec[32]))
:extrafuns ((gtINDEX37  BitVec[32]))
:extrafuns ((gtINDEX35  BitVec[32]))
:extrafuns ((gtINDEX36  BitVec[32]))
:extrafuns ((gtINDEX33  BitVec[32]))
:extrafuns ((gtINDEX34  BitVec[32]))
:extrafuns ((gtINDEX31  BitVec[32]))
:extrafuns ((gtINDEX32  BitVec[32]))
:extrafuns ((gtINDEX29  BitVec[32]))
:extrafuns ((gtINDEX30  BitVec[32]))
:extrafuns ((gtINDEX28  BitVec[32]))
:extrafuns ((gtINDEX27  BitVec[32]))
:extrafuns ((gtINDEX26  BitVec[32]))
:extrafuns ((gtINDEX25  BitVec[32]))
:extrafuns ((gtINDEX23  BitVec[32]))
:extrafuns ((gtINDEX24  BitVec[32]))
:extrafuns ((gtINDEX21  BitVec[32]))
:extrafuns ((gtINDEX22  BitVec[32]))
:extrafuns ((gtINDEX19  BitVec[32]))
:extrafuns ((gtINDEX20  BitVec[32]))
:extrafuns ((gtINDEX17  BitVec[32]))
:extrafuns ((gtINDEX18  BitVec[32]))
:extrafuns ((gtINDEX15  BitVec[32]))
:extrafuns ((gtINDEX16  BitVec[32]))
:extrafuns ((gtINDEX14  BitVec[32]))
:extrafuns ((gtINDEX13  BitVec[32]))
:extrafuns ((gtINDEX12  BitVec[32]))
:extrafuns ((gtINDEX11  BitVec[32]))
:extrafuns ((gtINDEX10  BitVec[32]))
:extrafuns ((gtINDEX8  BitVec[32]))
:extrafuns ((gtINDEX9  BitVec[32]))
:extrafuns ((gtINDEX7  BitVec[32]))
:extrafuns ((gtINDEX6  BitVec[32]))
:extrafuns ((gtINDEX4  BitVec[32]))
:extrafuns ((gtINDEX5  BitVec[32]))
:extrafuns ((gtINDEX2  BitVec[32]))
:extrafuns ((gtINDEX3  BitVec[32]))
:extrafuns ((gtINDEX0  BitVec[32]))
:extrafuns ((gtINDEX1  BitVec[32]))
:extrafuns ((gtFIELD__is_Eng__gtAGG____anonstruct_bitsForTID0_5  Array[32:1]))
:extrafuns ((gtFIELD__is_Eng__gtAGG____anonstruct_bitsForTID0_5_1_  Array[32:1]))
:extrafuns ((gtFIELD__sh_rst__gtAGG____anonstruct_D_Work_4_1_  Array[32:32]))
:extrafuns ((gtFIELD__sh_rst__gtAGG____anonstruct_D_Work_4_2_  Array[32:32]))
:extrafuns ((gtFIELD__sent__gtAGG____anonstruct_D_Work_4  Array[32:32]))
:extrafuns ((gtFIELD__is_active_Eng__gtAGG____anonstruct_bitsForTID0_5  Array[32:1]))
:extrafuns ((gtFIELD__is_active_PURI__gtAGG____anonstruct_bitsForTID0_5  Array[32:1]))
:extrafuns ((gtFIELD__is_PVRP__gtAGG____anonstruct_bitsForTID0_5  Array[32:2]))
:extrafuns ((gtFIELD__is_PVRP__gtAGG____anonstruct_bitsForTID0_5_1_  Array[32:2]))
:extrafuns ((gtFIELD__sh_rst__gtAGG____anonstruct_D_Work_4  Array[32:32]))
:extrafuns ((gtFIELD__comm__gtAGG____anonstruct_D_Work_4  Array[32:32]))
:extrafuns ((gtFIELD__comm__gtAGG____anonstruct_D_Work_4_1_  Array[32:32]))
:extrafuns ((gtFIELD__n_t_a1__gtAGG____anonstruct_D_Work_4  Array[32:32]))
:extrafuns ((gtFIELD__n_t_a1__gtAGG____anonstruct_D_Work_4_1_  Array[32:32]))
:extrafuns ((sfEvent_  BitVec[32]))
:extrafuns ((gtFIELD__is_active_PVRP__gtAGG____anonstruct_bitsForTID0_5  Array[32:1]))
:extrafuns ((gtFIELD__is_active_PPVARP__gtAGG____anonstruct_bitsForTID0_5  Array[32:1]))
:extrafuns ((gtFIELD__is_active_PLRI__gtAGG____anonstruct_bitsForTID0_5  Array[32:1]))
:extrafuns ((gtFIELD__URIex__gtAGG____anonstruct_bitsForTID0_5  Array[32:1]))
:extrafuns ((gtFIELD__AVId__gtAGG____anonstruct_D_Work_4  Array[32:32]))
:extrafuns ((gtFIELD__n_t__gtAGG____anonstruct_D_Work_4  Array[32:32]))
:extrafuns ((gtFIELD__temporalCounter_i1__gtAGG____anonstruct_D_Work_4  Array[32:32]))
:extrafuns ((gtFIELD__is_PAVI__gtAGG____anonstruct_bitsForTID0_5  Array[32:3]))
:extrafuns ((gtFIELD__is_active_PAVI__gtAGG____anonstruct_bitsForTID0_5  Array[32:1]))
:extrapreds ((constraint82 ))
:extrapreds ((constraint81 ))
:extrapreds ((constraint80 ))
:extrapreds ((constraint79 ))
:extrapreds ((constraint78 ))
:extrapreds ((constraint77 ))
:extrapreds ((constraint76 ))
:extrapreds ((constraint75 ))
:extrapreds ((constraint74 ))
:extrapreds ((constraint73 ))
:extrapreds ((constraint72 ))
:extrapreds ((constraint71 ))
:extrapreds ((constraint70 ))
:extrapreds ((constraint69 ))
:extrapreds ((constraint68 ))
:extrapreds ((constraint67 ))
:extrapreds ((constraint66 ))
:extrapreds ((constraint65 ))
:extrapreds ((constraint64 ))
:extrapreds ((constraint63 ))
:extrapreds ((constraint62 ))
:extrapreds ((constraint61 ))
:extrapreds ((constraint60 ))
:extrapreds ((constraint59 ))
:extrapreds ((constraint58 ))
:extrapreds ((constraint57 ))
:extrapreds ((constraint56 ))
:extrapreds ((constraint55 ))
:extrapreds ((constraint54 ))
:extrapreds ((constraint53 ))
:extrapreds ((constraint52 ))
:extrapreds ((constraint51 ))
:extrapreds ((constraint50 ))
:extrapreds ((constraint49 ))
:extrapreds ((constraint48 ))
:extrapreds ((constraint47 ))
:extrapreds ((constraint46 ))
:extrapreds ((constraint45 ))
:extrapreds ((constraint44 ))
:extrapreds ((constraint43 ))
:extrapreds ((constraint42 ))
:extrapreds ((constraint41 ))
:extrapreds ((constraint40 ))
:extrapreds ((constraint39 ))
:extrapreds ((constraint38 ))
:extrapreds ((constraint37 ))
:extrapreds ((constraint36 ))
:extrapreds ((constraint35 ))
:extrapreds ((constraint34 ))
:extrapreds ((constraint33 ))
:extrapreds ((constraint32 ))
:extrapreds ((constraint31 ))
:extrapreds ((constraint30 ))
:extrapreds ((constraint29 ))
:extrapreds ((constraint28 ))
:extrapreds ((constraint27 ))
:extrapreds ((constraint26 ))
:extrapreds ((constraint25 ))
:extrapreds ((constraint24 ))
:extrapreds ((constraint23 ))
:extrapreds ((constraint22 ))
:extrapreds ((constraint21 ))
:extrapreds ((constraint20 ))
:extrapreds ((constraint19 ))
:extrapreds ((constraint18 ))
:extrapreds ((constraint17 ))
:extrapreds ((constraint16 ))
:extrapreds ((constraint15 ))
:extrapreds ((constraint14 ))
:extrapreds ((constraint13 ))
:extrapreds ((constraint12 ))
:extrapreds ((constraint11 ))
:extrapreds ((constraint10 ))
:extrapreds ((constraint9 ))
:extrapreds ((constraint8 ))
:extrapreds ((constraint7 ))
:extrapreds ((constraint6 ))
:extrapreds ((constraint5 ))
:extrapreds ((constraint4 ))
:extrapreds ((constraint3 ))
:extrapreds ((constraint2 ))
:extrapreds ((constraint1 ))
:extrapreds ((constraint0 ))
:formula
(flet ($x443 (and constraint0 constraint1 constraint2 constraint3 constraint4 constraint5 constraint6 constraint7 constraint8 constraint9 constraint10 constraint11 constraint12 constraint13 constraint14 constraint15 constraint16 constraint17 constraint18 constraint19 constraint20 constraint21 constraint22 constraint23 constraint24 constraint25 constraint26 constraint27 constraint28 constraint29 constraint30 constraint31 constraint32 constraint33 constraint34 constraint35 constraint36 constraint37 constraint38 constraint39 constraint40 constraint41 constraint42 constraint43 constraint44 constraint45 constraint46 constraint47 constraint48 constraint49 constraint50 constraint51 constraint52 constraint53 constraint54 constraint55 constraint56 constraint57 constraint58 constraint59 constraint60 constraint61 constraint62 constraint63 constraint64 constraint65 constraint66 constraint67 constraint68 constraint69 constraint70 constraint71 constraint72 constraint73 constraint74 constraint75 constraint76 constraint77 constraint78 constraint79 constraint80 constraint81 constraint82))
(flet ($x275 (= gtINDEX48 (select gtFIELD__bitsForTID0__gtAGG____anonstruct_D_Work_4 gtINDEX47)))
(flet ($x271 (= gtINDEX46 (select gtFIELD__bitsForTID0__gtAGG____anonstruct_D_Work_4 gtINDEX45)))
(flet ($x259 (= gtINDEX36 (select gtFIELD__bitsForTID0__gtAGG____anonstruct_D_Work_4 gtINDEX35)))
(flet ($x255 (= gtINDEX34 (select gtFIELD__bitsForTID0__gtAGG____anonstruct_D_Work_4 gtINDEX33)))
(flet ($x251 (= gtINDEX32 (select gtFIELD__bitsForTID0__gtAGG____anonstruct_D_Work_4 gtINDEX31)))
(flet ($x247 (= gtINDEX30 (select gtFIELD__bitsForTID0__gtAGG____anonstruct_D_Work_4 gtINDEX29)))
(flet ($x239 (= gtINDEX24 (select gtFIELD__bitsForTID0__gtAGG____anonstruct_D_Work_4 gtINDEX23)))
(flet ($x235 (= gtINDEX22 (select gtFIELD__bitsForTID0__gtAGG____anonstruct_D_Work_4 gtINDEX21)))
(flet ($x231 (= gtINDEX20 (select gtFIELD__bitsForTID0__gtAGG____anonstruct_D_Work_4 gtINDEX19)))
(flet ($x227 (= gtINDEX18 (select gtFIELD__bitsForTID0__gtAGG____anonstruct_D_Work_4 gtINDEX17)))
(flet ($x223 (= gtINDEX16 (select gtFIELD__bitsForTID0__gtAGG____anonstruct_D_Work_4 gtINDEX15)))
(flet ($x214 (= gtINDEX9 (select gtFIELD__bitsForTID0__gtAGG____anonstruct_D_Work_4 gtINDEX8)))
(flet ($x208 (= gtINDEX5 (select gtFIELD__bitsForTID0__gtAGG____anonstruct_D_Work_4 gtINDEX4)))
(flet ($x204 (= gtINDEX3 (select gtFIELD__bitsForTID0__gtAGG____anonstruct_D_Work_4 gtINDEX2)))
(flet ($x200 (= gtINDEX1 (select gtFIELD__bitsForTID0__gtAGG____anonstruct_D_Work_4 gtINDEX0)))
(let (?x194 (store gtFIELD__is_Eng__gtAGG____anonstruct_bitsForTID0_5 gtINDEX48 (extract[0:0] bv1[32])))
(flet ($x343 (iff constraint33 (= gtFIELD__is_Eng__gtAGG____anonstruct_bitsForTID0_5_1_ ?x194)))
(let (?x190 (zero_extend[31] (select gtFIELD__is_Eng__gtAGG____anonstruct_bitsForTID0_5 gtINDEX46)))
(let (?x186 (store gtFIELD__sh_rst__gtAGG____anonstruct_D_Work_4_1_ gtINDEX44 bv0[32]))
(flet ($x339 (iff constraint31 (= gtFIELD__sh_rst__gtAGG____anonstruct_D_Work_4_2_ ?x186)))
(flet ($x184 (= (select gtFIELD__sh_rst__gtAGG____anonstruct_D_Work_4_1_ gtINDEX43) bv1[32]))
(flet ($x180 (= (select gtFIELD__sent__gtAGG____anonstruct_D_Work_4 gtINDEX42) bv3[32]))
(flet ($x176 (= (select gtFIELD__sent__gtAGG____anonstruct_D_Work_4 gtINDEX41) bv2[32]))
(flet ($x172 (= (select gtFIELD__sent__gtAGG____anonstruct_D_Work_4 gtINDEX40) bv1[32]))
(flet ($x168 (= (select gtFIELD__sent__gtAGG____anonstruct_D_Work_4 gtINDEX39) (bvmul bv4294967295[32] bv1[32])))
(flet ($x162 (= (select gtFIELD__sent__gtAGG____anonstruct_D_Work_4 gtINDEX38) bv9[32]))
(flet ($x157 (= (select gtFIELD__sent__gtAGG____anonstruct_D_Work_4 gtINDEX37) bv4[32]))
(let (?x152 (zero_extend[31] (select gtFIELD__is_Eng__gtAGG____anonstruct_bitsForTID0_5 gtINDEX36)))
(let (?x146 (select gtFIELD__is_active_Eng__gtAGG____anonstruct_bitsForTID0_5 gtINDEX34))
(let (?x140 (select gtFIELD__is_active_PURI__gtAGG____anonstruct_bitsForTID0_5 gtINDEX32))
(let (?x137 (store gtFIELD__is_PVRP__gtAGG____anonstruct_bitsForTID0_5 gtINDEX30 (extract[1:0] bv3[32])))
(flet ($x317 (iff constraint20 (= gtFIELD__is_PVRP__gtAGG____anonstruct_bitsForTID0_5_1_ ?x137)))
(flet ($x133 (= gtFIELD__sh_rst__gtAGG____anonstruct_D_Work_4_1_ (store gtFIELD__sh_rst__gtAGG____anonstruct_D_Work_4 gtINDEX28 bv1[32])))
(let (?x128 (bvadd (select gtFIELD__comm__gtAGG____anonstruct_D_Work_4 gtINDEX26) bv1[32]))
(flet ($x130 (= gtFIELD__comm__gtAGG____anonstruct_D_Work_4_1_ (store gtFIELD__comm__gtAGG____anonstruct_D_Work_4 gtINDEX27 ?x128)))
(flet ($x124 (= gtFIELD__n_t_a1__gtAGG____anonstruct_D_Work_4_1_ (store gtFIELD__n_t_a1__gtAGG____anonstruct_D_Work_4 gtINDEX25 bv0[32])))
(let (?x118 (select gtFIELD__is_PVRP__gtAGG____anonstruct_bitsForTID0_5 gtINDEX24))
(let (?x113 (select gtFIELD__is_active_PVRP__gtAGG____anonstruct_bitsForTID0_5 gtINDEX22))
(let (?x107 (select gtFIELD__is_active_PPVARP__gtAGG____anonstruct_bitsForTID0_5 gtINDEX20))
(let (?x101 (select gtFIELD__is_active_PLRI__gtAGG____anonstruct_bitsForTID0_5 gtINDEX18))
(let (?x94 (zero_extend[31] (select gtFIELD__URIex__gtAGG____anonstruct_bitsForTID0_5 gtINDEX16)))
(flet ($x91 (= (select gtFIELD__comm__gtAGG____anonstruct_D_Work_4 gtINDEX14) bv0[32]))
(flet ($x88 (= (select gtFIELD__sent__gtAGG____anonstruct_D_Work_4 gtINDEX13) bv0[32]))
(let (?x83 (bvadd (select gtFIELD__n_t__gtAGG____anonstruct_D_Work_4 gtINDEX11) (select gtFIELD__AVId__gtAGG____anonstruct_D_Work_4 gtINDEX12)))
(let (?x78 (select gtFIELD__temporalCounter_i1__gtAGG____anonstruct_D_Work_4 gtINDEX10))
(let (?x75 (zero_extend[31] (select gtFIELD__URIex__gtAGG____anonstruct_bitsForTID0_5 gtINDEX9)))
(flet ($x72 (= (select gtFIELD__comm__gtAGG____anonstruct_D_Work_4 gtINDEX7) bv0[32]))
(flet ($x69 (= (select gtFIELD__sent__gtAGG____anonstruct_D_Work_4 gtINDEX6) bv0[32]))
(let (?x64 (zero_extend[29] (select gtFIELD__is_PAVI__gtAGG____anonstruct_bitsForTID0_5 gtINDEX5)))
(let (?x58 (zero_extend[29] (select gtFIELD__is_PAVI__gtAGG____anonstruct_bitsForTID0_5 gtINDEX3)))
(let (?x51 (select gtFIELD__is_active_PAVI__gtAGG____anonstruct_bitsForTID0_5 gtINDEX1))
(flet ($x442 (and (iff constraint0 (not (= sfEvent_ bv8[32]))) (iff constraint1 (not (= (zero_extend[31] ?x51) bv0[32]))) (iff constraint2 (not (= ?x58 bv1[32]))) (iff constraint3 (= ?x64 bv2[32])) (iff constraint4 $x69) (iff constraint5 $x72) (iff constraint6 (= ?x75 bv0[32])) (iff constraint7 (not (= ?x78 ?x83))) (iff constraint8 $x88) (iff constraint9 $x91) (iff constraint10 (not (= ?x94 bv1[32]))) (iff constraint11 (not (= sfEvent_ bv5[32]))) (iff constraint12 (not (not (= (zero_extend[31] ?x101) bv0[32])))) (iff constraint13 (not (not (= (zero_extend[31] ?x107) bv0[32])))) (iff constraint14 (not (= (zero_extend[31] ?x113) bv0[32]))) (iff constraint15 (= (zero_extend[30] ?x118) bv1[32])) (iff constraint16 (= sfEvent_ bv0[32])) (iff constraint17 $x124) (iff constraint18 $x130) (iff constraint19 $x133) $x317 (iff constraint21 (not (not (= (zero_extend[31] ?x140) bv0[32])))) (iff constraint22 (not (= (zero_extend[31] ?x146) bv0[32]))) (iff constraint23 (= ?x152 bv1[32])) (iff constraint24 (not $x157)) (iff constraint25 (not $x162)) (iff constraint26 (not $x168)) (iff constraint27 (not $x172)) (iff constraint28 (not $x176)) (iff constraint29 (not $x180)) (iff constraint30 $x184) $x339 (iff constraint32 (= ?x190 bv1[32])) $x343 (iff constraint34 (= gtINDEX0 gtAGG__rtDWork)) (iff constraint35 $x200) (iff constraint36 (= gtINDEX2 gtAGG__rtDWork)) (iff constraint37 $x204) (iff constraint38 (= gtINDEX4 gtAGG__rtDWork)) (iff constraint39 $x208) (iff constraint40 (= gtINDEX6 gtAGG__rtDWork)) (iff constraint41 (= gtINDEX7 gtAGG__rtDWork)) (iff constraint42 (= gtINDEX8 gtAGG__rtDWork)) (iff constraint43 $x214) (iff constraint44 (= gtINDEX10 gtAGG__rtDWork)) (iff constraint45 (= gtINDEX11 gtAGG__rtDWork)) (iff constraint46 (= gtINDEX12 gtAGG__rtDWork)) (iff constraint47 (= gtINDEX13 gtAGG__rtDWork)) (iff constraint48 (= gtINDEX14 gtAGG__rtDWork)) (iff constraint49 (= gtINDEX15 gtAGG__rtDWork)) (iff constraint50 $x223) (iff constraint51 (= gtINDEX17 gtAGG__rtDWork)) (iff constraint52 $x227) (iff constraint53 (= gtINDEX19 gtAGG__rtDWork)) (iff constraint54 $x231) (iff constraint55 (= gtINDEX21 gtAGG__rtDWork)) (iff constraint56 $x235) (iff constraint57 (= gtINDEX23 gtAGG__rtDWork)) (iff constraint58 $x239) (iff constraint59 (= gtINDEX25 gtAGG__rtDWork)) (iff constraint60 (= gtINDEX26 gtAGG__rtDWork)) (iff constraint61 (= gtINDEX27 gtAGG__rtDWork)) (iff constraint62 (= gtINDEX28 gtAGG__rtDWork)) (iff constraint63 (= gtINDEX29 gtAGG__rtDWork)) (iff constraint64 $x247) (iff constraint65 (= gtINDEX31 gtAGG__rtDWork)) (iff constraint66 $x251) (iff constraint67 (= gtINDEX33 gtAGG__rtDWork)) (iff constraint68 $x255) (iff constraint69 (= gtINDEX35 gtAGG__rtDWork)) (iff constraint70 $x259) (iff constraint71 (= gtINDEX37 gtAGG__rtDWork)) (iff constraint72 (= gtINDEX38 gtAGG__rtDWork)) (iff constraint73 (= gtINDEX39 gtAGG__rtDWork)) (iff constraint74 (= gtINDEX40 gtAGG__rtDWork)) (iff constraint75 (= gtINDEX41 gtAGG__rtDWork)) (iff constraint76 (= gtINDEX42 gtAGG__rtDWork)) (iff constraint77 (= gtINDEX43 gtAGG__rtDWork)) (iff constraint78 (= gtINDEX44 gtAGG__rtDWork)) (iff constraint79 (= gtINDEX45 gtAGG__rtDWork)) (iff constraint80 $x271) (iff constraint81 (= gtINDEX47 gtAGG__rtDWork)) (iff constraint82 $x275)))
(and $x442 $x443))))))))))))))))))))))))))))))))))))))))))))))))))))))
)
